words_hard_train/1578.qaiger
aag 41 21 0 1 20
2
4
8
12
14
18
24
26
30
34
36
40
48
50
54
58
60
64
72
74
78
83
6 2 4
10 7 9
16 12 14
20 17 19
22 11 21
28 24 26
32 29 31
38 34 36
42 39 41
44 33 43
46 22 44
52 48 50
56 53 55
62 58 60
66 63 65
68 57 67
70 46 68
76 72 74
80 77 79
82 71 81
i0 1 x2[4]
i1 1 x1[4]
i2 2 y2[4]
i3 1 x2[5]
i4 1 x1[5]
i5 2 y2[5]
i6 1 x2[2]
i7 1 x1[2]
i8 2 y2[2]
i9 1 x2[3]
i10 1 x1[3]
i11 2 y2[3]
i12 1 x2[6]
i13 1 x1[6]
i14 2 y2[6]
i15 1 x2[1]
i16 1 x1[1]
i17 2 y2[1]
i18 1 x2[7]
i19 1 x1[7]
i20 2 y2[7]
o0 bv[0]
c
simplified
  <=
    invert
      1
    or
      and
        1 x1
        1 x2
      2 y2
