words_hard_train/1578.qaiger.qdimacs
p cnf 41 61
a 1 2 36 37 6 7 12 13 17 18 24 25 29 30 0
e 3 4 5 8 9 10 11 14 15 16 19 20 21 22 23 26 27 28 31 32 33 34 35 38 39 40 41 0
-1 -2 3 0
1 -3 0
2 -3 0
3 4 5 0
-3 -5 0
-4 -5 0
-6 -7 8 0
6 -8 0
7 -8 0
8 9 10 0
-8 -10 0
-9 -10 0
5 10 11 0
-5 -11 0
-10 -11 0
-12 -13 14 0
12 -14 0
13 -14 0
14 15 16 0
-14 -16 0
-15 -16 0
-17 -18 19 0
17 -19 0
18 -19 0
19 20 21 0
-19 -21 0
-20 -21 0
16 21 22 0
-16 -22 0
-21 -22 0
-11 -22 23 0
11 -23 0
22 -23 0
-24 -25 26 0
24 -26 0
25 -26 0
26 27 28 0
-26 -28 0
-27 -28 0
-29 -30 31 0
29 -31 0
30 -31 0
31 32 33 0
-31 -33 0
-32 -33 0
28 33 34 0
-28 -34 0
-33 -34 0
-23 -34 35 0
23 -35 0
34 -35 0
-36 -37 38 0
36 -38 0
37 -38 0
38 39 40 0
-38 -40 0
-39 -40 0
35 40 41 0
-35 -41 0
-40 -41 0
-41 0
